# Objective value = 17
WA1n 0
WA1p 0
WA2n 0
WA2p 1
WB1n 0
WB1p 1
WC1n 0
WC1p 1
WD1n 2
WD1p 0
WE1n 0
WE1p 2
WE2n 0
WE2p 1
WF1n 4
WF1p 0
WF2n 1
WF2p 0
WT1n 0
WT1p 1
5 7
a 0
b 1
c 1
d 1
e 0
f 1
g 1
h 0
i 0
j 1
